webassembly/ejemplos_dzn/folder11_json_3.dzn
TERM = { '.', 's(2)', 's(4)', 'in_1', 'local_0', 'local_1', 's(1)', 's(0)', 's(3)', 'in_0'};
null = '.';
s = 11;
n = 9;
ndeps = 3;
max_registers_sz = 5;
NR = 2;
registers = [|'local_0', 's(4)', |'local_1', 's(3)'|];
dependencies = [|'call[function_index(0)]_3', 'i32.store_4', |'i32.store_4', 'i32.load8_u_5', |'i32.store_4', 'i32.load16_s_6'|];
GET_ENUM = { GET1, GET2, GET3, GET4, GET5, GET6, GET7};
SET_ENUM = { SET1, SET2, SET3, SET4, SET5, SET6, SET7};
TEE_ENUM = { TEE1, TEE2, TEE3, TEE4, TEE5, TEE6, TEE7};
N = 5;
OP = { 'call[function_index(0)]_3', 'i32.store_4', 'i32.load8_u_5', 'i32.load16_s_6', 'i32.const_0' };
in_ops = [2, 2, 1, 1, 0 ];
out_ops = [2, 0, 1, 1, 1 ];
in1 = ['local_1', 's(1)', 'in_1', 's(2)', '.' ];
in2 = ['in_0', 's(0)', '.', '.', '.' ];
in3 = ['.', '.', '.', '.', '.' ];
out1 = ['s(1)', '.', 's(2)', 's(3)', 's(4)' ];
out2 = ['s(0)', '.', '.', '.', '.' ];
out3 = ['.', '.', '.', '.', '.' ];
comm = [false, false, false, false, false ];
gas = [1, 1, 1, 1, 1 ];
sz = [1, 1, 1, 1, 1 ];
stor = [true, true, false, false, false ];
lb = [ 1, 1, 1, 1, 1 ];
ub = [ 11, 11, 11, 11, 11 ];
startstack = [ 'in_0', 'in_1', null, null, null, null, null, null, null ];
endstack = [ null, null, null, null, null, null, null, null, null ];
